words_easy_train/words_536_SAT.qaiger
aag 66 16 0 1 50
2
14
16
18
22
30
28
10
32
20
26
24
4
8
12
6
133
34 21 19
36 34 23
38 36 25
40 38 27
42 40 29
44 41 28
46 45 43
48 46 13
50 47 12
52 51 49
54 42 31
56 33 17
58 32 16
60 59 57
62 61 55
64 43 30
66 61 14
68 67 65
70 69 62
72 20 4
74 21 5
76 75 73
78 76 2
80 78 18
82 77 3
84 82 19
86 85 81
88 35 22
90 89 37
92 90 7
94 91 6
96 95 93
98 96 87
100 37 24
102 101 39
104 102 9
106 103 8
108 107 105
110 108 98
112 39 26
114 113 41
116 114 11
118 115 10
120 119 117
122 120 110
124 122 71
126 69 14
128 127 63
130 129 124
132 130 52
i0 1 x1[0]
i1 1 x1[6]
i2 1 x1[7]
i3 2 y2[0]
i4 2 y2[2]
i5 2 y2[6]
i6 2 y2[5]
i7 1 x1[4]
i8 2 y2[7]
i9 2 y2[1]
i10 2 y2[4]
i11 2 y2[3]
i12 1 x1[1]
i13 1 x1[3]
i14 1 x1[5]
i15 1 x1[2]
o0 bool[0]
c
simplified
  !=
    1 x1
    subtract
      << 6
        1
      2 y2
