words_easy_train/words_536_SAT.qaiger.qdimacs
p cnf 66 151
a 1 2 3 4 5 6 7 8 0
e 9 10 11 12 13 14 15 16 17 18 19 20 21 22 23 24 25 26 27 28 29 30 31 32 33 34 35 36 37 38 39 40 41 42 43 44 45 46 47 48 49 50 51 52 53 54 55 56 57 58 59 60 61 62 63 64 65 66 0
10 9 17 0
-10 -17 0
-9 -17 0
-17 11 18 0
17 -18 0
-11 -18 0
-18 12 19 0
18 -19 0
-12 -19 0
-19 13 20 0
19 -20 0
-13 -20 0
-20 14 21 0
20 -21 0
-14 -21 0
20 -14 22 0
-20 -22 0
14 -22 0
22 21 23 0
-22 -23 0
-21 -23 0
-23 6 24 0
23 -24 0
-6 -24 0
23 -6 25 0
-23 -25 0
6 -25 0
25 24 26 0
-25 -26 0
-24 -26 0
-21 15 27 0
21 -27 0
-15 -27 0
16 8 28 0
-16 -28 0
-8 -28 0
-16 -8 29 0
16 -29 0
8 -29 0
29 28 30 0
-29 -30 0
-28 -30 0
30 27 31 0
-30 -31 0
-27 -31 0
21 -15 32 0
-21 -32 0
15 -32 0
30 -7 33 0
-30 -33 0
7 -33 0
33 32 34 0
-33 -34 0
-32 -34 0
34 -31 35 0
-34 -35 0
31 -35 0
-10 -2 36 0
10 -36 0
2 -36 0
10 2 37 0
-10 -37 0
-2 -37 0
37 36 38 0
-37 -38 0
-36 -38 0
-38 -1 39 0
38 -39 0
1 -39 0
-39 -9 40 0
39 -40 0
9 -40 0
38 1 41 0
-38 -41 0
-1 -41 0
-41 9 42 0
41 -42 0
-9 -42 0
42 40 43 0
-42 -43 0
-40 -43 0
17 -11 44 0
-17 -44 0
11 -44 0
44 18 45 0
-44 -45 0
-18 -45 0
-45 3 46 0
45 -46 0
-3 -46 0
45 -3 47 0
-45 -47 0
3 -47 0
47 46 48 0
-47 -48 0
-46 -48 0
-48 43 49 0
48 -49 0
-43 -49 0
18 -12 50 0
-18 -50 0
12 -50 0
50 19 51 0
-50 -51 0
-19 -51 0
-51 4 52 0
51 -52 0
-4 -52 0
51 -4 53 0
-51 -53 0
4 -53 0
53 52 54 0
-53 -54 0
-52 -54 0
-54 -49 55 0
54 -55 0
49 -55 0
19 -13 56 0
-19 -56 0
13 -56 0
56 20 57 0
-56 -57 0
-20 -57 0
-57 5 58 0
57 -58 0
-5 -58 0
57 -5 59 0
-57 -59 0
5 -59 0
59 58 60 0
-59 -60 0
-58 -60 0
-60 -55 61 0
60 -61 0
55 -61 0
-61 35 62 0
61 -62 0
-35 -62 0
34 -7 63 0
-34 -63 0
7 -63 0
63 31 64 0
-63 -64 0
-31 -64 0
64 -62 65 0
-64 -65 0
62 -65 0
-65 -26 66 0
65 -66 0
26 -66 0
-66 0
